sing20140310.12
TTAA  60121 48698
99007 29457 06512 00078 27057 04013 92763 21222 02517
85493 18037 35002 70134 12266 05019 50587 04187 07024
40759 16571 08010 30970 29372 04009 25097 40167 30011
20245 53159 21012 15424 68757 10516 10659 81950 04005
88999
77999=
TTCC  6012/ 48698=
TTDD  6012/ 48698
11987 82356 22958 82357 33937 83357 44912 84356 55906
84350 66888 83950 77827 81356 88803 82157 99794 81757
21212 11979 10507 22961 13509 33926 21009 44911 23507
55895 20002 66861 08014 77845 11511 88829 16510 99814
17513 11800 17010 22794 16015=
